&DOS
  prefix    = 'SnO2_1to1'
  outdir    = './tmp'
  fildos    = 'SnO2_1to1_total.dos'
  degauss   = 0.005
  DeltaE    = 0.01
  Emin      = -10.0
  Emax      =  10.0
/
