&CONTROL
  calculation   = 'bands'
  prefix        = 'SnO2_2to1'
  outdir        = './tmp'
  pseudo_dir    = '../../pseudo'
/

&SYSTEM
  ibrav         = 0
  nat           = 21
  ntyp          = 2
  ecutwfc       = 60
  ecutrho       = 480
  nbnd          = 200
  nspin         = 2
  tot_charge       = 0.0
/

&ELECTRONS
  conv_thr         = 1.0e-10
  electron_maxstep = 300
  diagonalization  = 'cg'      ! avoid Davidson 'cdiaghg (227): problems
                               ! computing cholesky' on the band step
/

ATOMIC_SPECIES
  Sn  118.710  Sn.pbesol-dn-kjpaw_psl.1.0.0.UPF
  O   15.999   O.pbesol-n-kjpaw_psl.1.0.0.UPF

CELL_PARAMETERS angstrom
  9.474000   0.000000   0.000000
  0.000000   9.474000   0.000000
  0.000000   0.000000   3.186000

ATOMIC_POSITIONS angstrom
  Sn   0.000000   0.000000   0.000000
  Sn   2.368500   2.368500   1.593000
  Sn   4.737000   0.000000   0.000000
  Sn   7.105500   2.368500   1.593000
  Sn   0.000000   4.737000   0.000000
  Sn   2.368500   7.105500   1.593000
  Sn   4.737000   4.737000   0.000000
  Sn   7.105500   7.105500   1.593000
  O    1.454259   1.454259   0.000000
  O    7.919741   7.919741   0.000000
  O    0.914241   3.282759   1.593000
  O    3.282759   0.914241   1.593000
  O    6.191259   1.454259   0.000000
  O    3.822741   3.822741   0.000000
  O    5.651241   0.914241   1.593000
  O    1.454259   6.191259   0.000000
  O    3.822741   8.559741   0.000000
  O    0.914241   7.651241   1.593000
  O    3.282759   5.282759   1.593000
  O    6.191259   6.191259   0.000000
  O    5.651241   5.651241   1.593000

K_POINTS crystal_b
  8
  0.000  0.000  0.000   50   ! Gamma
  0.500  0.500  0.000   40   ! M
  0.500  0.000  0.000   30   ! X
  0.000  0.000  0.000   50   ! Gamma
  0.000  0.000  0.500   30   ! Z
  0.500  0.500  0.500   40   ! R
  0.500  0.000  0.500   30   ! A
  0.000  0.000  0.500    1   ! Z

HUBBARD (ortho-atomic)
  U Sn-4d 4.0
  U O-2p  0.0
