&CONTROL
  calculation   = 'bands'
  prefix        = 'SnO2_2to1'
  outdir        = './tmp'
  pseudo_dir    = '../../pseudo'
/

&SYSTEM
  ibrav         = 0
  nat           = 21
  ntyp          = 2
  ecutwfc       = 60
  ecutrho       = 480
  nbnd          = 200
  nspin         = 2
  tot_charge       = 0.0
/

&ELECTRONS
  conv_thr           = 1.0e-9    ! plenty for bands; 1e-10 left top bands unconv.
  electron_maxstep   = 300
  diagonalization    = 'david'   ! Davidson (verified stable, ~28x faster than cg)
  diago_david_ndim   = 2         ! small subspace avoids cdiaghg cholesky singularity
  diago_full_acc     = .true.    ! converge empty bands (they caused the cholesky fail)
/

ATOMIC_SPECIES
  Sn  118.710  Sn.pbesol-dn-kjpaw_psl.1.0.0.UPF
  O   15.999   O.pbesol-n-kjpaw_psl.1.0.0.UPF

CELL_PARAMETERS angstrom
     9.587828742   -0.276195743    0.000000000
    -0.276195743    9.587828742   -0.000000000
     0.000000000   -0.000000000    3.167472490

ATOMIC_POSITIONS angstrom
  Sn     0.111530617    0.035761263    0.000000000
  Sn     2.495720931    2.463914106    1.583736245
  Sn     4.820643341   -0.111368902    0.000000000
  Sn     7.251971807    2.319959565    1.583736245
  Sn    -0.266414084    4.665598159   -0.000000000
  Sn     2.138762620    7.070774862    1.583736245
  Sn     4.691577763    4.767347116    0.000000000
  Sn     7.119730606    7.151537430    1.583736245
  O      1.539573921    1.465260879    0.000000000
  O      3.863133674    0.798736735    1.583736245
  O      0.691704721    3.722830867    1.583736245
  O      6.297806841    1.365794599    0.000000000
  O      8.628199912    0.531252798    1.583736245
  O      5.463265041    3.696187669    1.583736245
  O      1.202938203    6.134950446   -0.000000000
  O      3.060275906    7.992288149   -0.000000000
  O      3.599918765    5.566183294    1.583736245
  O      0.634171051    8.531931008    1.583736245
  O      6.121077378    6.195390421    0.000000000
  O      8.378647366    5.347521221    1.583736245
  O      5.454553235    8.518950173    1.583736245

K_POINTS crystal_b
  8
  0.000  0.000  0.000   50   ! Gamma
  0.500  0.500  0.000   40   ! M
  0.500  0.000  0.000   30   ! X
  0.000  0.000  0.000   50   ! Gamma
  0.000  0.000  0.500   30   ! Z
  0.500  0.500  0.500   40   ! R
  0.500  0.000  0.500   30   ! A
  0.000  0.000  0.500    1   ! Z

HUBBARD (ortho-atomic)
  U Sn-4d 4.0
  U O-2p  0.0
