&CONTROL
  calculation   = 'bands'
  prefix        = 'SnO2_pristine'
  outdir        = './tmp'
  pseudo_dir    = '../../pseudo'
/

&SYSTEM
  ibrav         = 0
  nat           = 24
  ntyp          = 2
  ecutwfc       = 60
  ecutrho       = 480
  nbnd          = 160
  nspin         = 1
/

&ELECTRONS
  conv_thr           = 1.0e-9    ! plenty for bands; 1e-10 left top bands unconv.
  electron_maxstep   = 300
  diagonalization    = 'cg'      ! avoid Davidson 'cdiaghg (227): problems
                                 ! computing cholesky' on the band step
  diago_cg_maxiter   = 200       ! default 20 -> 'eigenvalues not converged'
/

ATOMIC_SPECIES
  Sn  118.710  Sn.pbesol-dn-kjpaw_psl.1.0.0.UPF
  O   15.999   O.pbesol-n-kjpaw_psl.1.0.0.UPF

CELL_PARAMETERS angstrom
     9.526314469   -0.000000406    0.000000000
    -0.000000406    9.526314469    0.000000000
     0.000000000    0.000000000    3.217793281

ATOMIC_POSITIONS angstrom
  Sn     0.000000000    0.000000000    0.000000000
  Sn     2.381576843    2.381576843    1.608896641
  Sn     4.763157235   -0.000000203   -0.000000000
  Sn     7.144736676    2.381577387    1.608896641
  Sn    -0.000000203    4.763157235    0.000000000
  Sn     2.381577387    7.144736676    1.608896641
  Sn     4.763157032    4.763157032    0.000000000
  Sn     7.144737220    7.144737220    1.608896641
  O      1.458514617    1.458514617    0.000000000
  O      3.304639854    3.304639854    0.000000000
  O      3.840094116    0.923061891    1.608896641
  O      0.923061891    3.840094116    1.608896641
  O      6.221674084    1.458514843   -0.000000000
  O      8.067799221    3.304639980   -0.000000000
  O      8.603252237    0.923061826    1.608896641
  O      5.686220175    3.840093888    1.608896641
  O      1.458514843    6.221674084   -0.000000000
  O      3.304639980    8.067799221   -0.000000000
  O      3.840093888    5.686220175    1.608896641
  O      0.923061826    8.603252237    1.608896641
  O      6.221674210    6.221674210    0.000000000
  O      8.067799447    8.067799447    0.000000000
  O      8.603252173    5.686219948    1.608896641
  O      5.686219948    8.603252173    1.608896641

! High-symmetry k-path for rutile 2x2x1 supercell (tetragonal)
! Verify with SeeK-path: https://seekpath.materialscloud.org
! Path: Gamma -> M -> X -> Gamma -> Z -> R -> A -> Z
K_POINTS crystal_b
  8
  0.000  0.000  0.000   50   ! Gamma
  0.500  0.500  0.000   40   ! M
  0.500  0.000  0.000   30   ! X
  0.000  0.000  0.000   50   ! Gamma
  0.000  0.000  0.500   30   ! Z
  0.500  0.500  0.500   40   ! R
  0.500  0.000  0.500   30   ! A
  0.000  0.000  0.500    1   ! Z

HUBBARD (ortho-atomic)
  U Sn-4d 4.0
  U O-2p  0.0