&CONTROL
  calculation   = 'nscf'
  prefix        = 'SnO2_2to1'
  outdir        = './tmp'
  pseudo_dir    = '../../pseudo'
/

&SYSTEM
  ibrav         = 0
  nat           = 21
  ntyp          = 2
  ecutwfc       = 60
  ecutrho       = 480
  nbnd          = 200          ! more bands needed: 3 Vo create denser sub-gap states
  occupations   = 'tetrahedra_opt'
  nspin         = 2
  tot_charge       = 0.0
/

&ELECTRONS
  conv_thr           = 1.0e-9    ! plenty for nscf DOS; 1e-10 left top bands unconv.
  electron_maxstep   = 300
  diagonalization    = 'cg'      ! avoid Davidson 'cdiaghg (227): problems
                                 ! computing cholesky' on the band step
  diago_cg_maxiter   = 200       ! default 20 -> 'eigenvalues not converged'
/

ATOMIC_SPECIES
  Sn  118.710  Sn.pbesol-dn-kjpaw_psl.1.0.0.UPF
  O   15.999   O.pbesol-n-kjpaw_psl.1.0.0.UPF

CELL_PARAMETERS angstrom
     9.587828742   -0.276195743    0.000000000
    -0.276195743    9.587828742   -0.000000000
     0.000000000   -0.000000000    3.167472490

ATOMIC_POSITIONS angstrom
  Sn     0.111530617    0.035761263    0.000000000
  Sn     2.495720931    2.463914106    1.583736245
  Sn     4.820643341   -0.111368902    0.000000000
  Sn     7.251971807    2.319959565    1.583736245
  Sn    -0.266414084    4.665598159   -0.000000000
  Sn     2.138762620    7.070774862    1.583736245
  Sn     4.691577763    4.767347116    0.000000000
  Sn     7.119730606    7.151537430    1.583736245
  O      1.539573921    1.465260879    0.000000000
  O      3.863133674    0.798736735    1.583736245
  O      0.691704721    3.722830867    1.583736245
  O      6.297806841    1.365794599    0.000000000
  O      8.628199912    0.531252798    1.583736245
  O      5.463265041    3.696187669    1.583736245
  O      1.202938203    6.134950446   -0.000000000
  O      3.060275906    7.992288149   -0.000000000
  O      3.599918765    5.566183294    1.583736245
  O      0.634171051    8.531931008    1.583736245
  O      6.121077378    6.195390421    0.000000000
  O      8.378647366    5.347521221    1.583736245
  O      5.454553235    8.518950173    1.583736245

K_POINTS automatic
  8 8 12  0 0 0

HUBBARD (ortho-atomic)
  U Sn-4d 4.0
  U O-2p  0.0
