&CONTROL
  calculation   = 'nscf'
  prefix        = 'TiO2_pristine'
  outdir        = './tmp'
  pseudo_dir    = '../../pseudo'
/

&SYSTEM
  ibrav         = 0
  nat           = 24
  ntyp          = 2
  ecutwfc       = 60
  ecutrho       = 480
  nbnd          = 160          ! ~2.5x occupied bands (TiO2 has ~64 occ bands)
  occupations   = 'tetrahedra_opt'
  nspin         = 1
/

&ELECTRONS
  conv_thr           = 1.0e-9    ! plenty for nscf DOS; 1e-10 left top bands unconv.
  electron_maxstep   = 300
  diagonalization    = 'cg'      ! avoid Davidson 'cdiaghg (227): problems
                                 ! computing cholesky' on the band step
  diago_cg_maxiter   = 200       ! default 20 -> 'eigenvalues not converged'
/

ATOMIC_SPECIES
  Ti  47.867  Ti.pbesol-spn-kjpaw_psl.1.0.0.UPF
  O   15.999  O.pbesol-n-kjpaw_psl.1.0.0.UPF

! Use relaxed coordinates from vc-relax
CELL_PARAMETERS angstrom
     9.182506764    0.000003220    0.000000000
     0.000003220    9.182506764    0.000000000
     0.000000000    0.000000000    2.987766100

ATOMIC_POSITIONS angstrom
  Ti     0.000000000    0.000000000    0.000000000
  Ti     2.295625860    2.295625860    1.493883050
  Ti     4.591253382    0.000001610   -0.000000000
  Ti     6.886882518    2.295627466    1.493883050
  Ti     0.000001610    4.591253382    0.000000000
  Ti     2.295627466    6.886882518    1.493883050
  Ti     4.591254992    4.591254992    0.000000000
  Ti     6.886884123    6.886884123    1.493883050
  O      1.400481415    1.400481415   -0.000000000
  O      3.190771315    3.190771315    0.000000000
  O      3.696108441    0.895144845    1.493883050
  O      0.895144845    3.696108441    1.493883050
  O      5.991737670    1.400483017   -0.000000000
  O      7.782026966    3.190772313    0.000000000
  O      8.287362877    0.895147106    1.493883050
  O      5.486401219    3.696108764    1.493883050
  O      1.400483017    5.991737670    0.000000000
  O      3.190772313    7.782026966   -0.000000000
  O      3.696108764    5.486401219    1.493883050
  O      0.895147106    8.287362877    1.493883050
  O      5.991738669    5.991738669    0.000000000
  O      7.782028569    7.782028569   -0.000000000
  O      8.287365138    5.486401542    1.493883050
  O      5.486401542    8.287365138    1.493883050

K_POINTS automatic
  8 8 12  0 0 0

HUBBARD (ortho-atomic)
  U Ti-3d 4.2
  U O-2p  0.0
